Name: TestUD
Courses: 49
Rooms: 9
Days: 6
Periods_per_day: 10
Curricula: 37
Min_Max_Daily_Lectures: 3 6
UnavailabilityConstraints: 405
RoomConstraints: 128

COURSES:
c0713 t000 10 4 20 1
c0714 t001 4 2 29 1
c0715 t002 6 2 10 1
c0716 t003 4 2 79 1
c0717 t004 6 2 20 1
c0718 t005 2 1 30 1
c0719 t006 10 4 10 1
c0720 t007 4 2 63 1
c0721 t008 4 2 43 1
c0722 t009 8 3 10 1
c0723 t010 4 2 42 1
c0724 t011 4 2 26 1
c0725 t012 4 2 23 1
c0726 t013 10 4 40 1
c0727 t014 4 2 55 1
c0728 t015 4 2 10 1
c0729 t016 3 2 20 1
c0730 t017 4 2 20 1
c0731 t018 1 1 40 1
c0732 t019 10 4 20 1
c0733 t020 8 3 30 1
c0734 t021 4 2 38 1
c0735 t022 4 2 25 1
c0736 t023 8 3 25 1
c0737 t023 4 2 24 1
c0738 t024 4 2 25 1
c0739 t025 8 3 16 1
c0740 t026 4 2 20 1
c0741 t027 1 1 10 1
c0742 t027 1 1 10 1
c0743 t028 4 2 20 1
c0744 t029 6 2 10 1
c0745 t029 1 1 10 1
c0746 t030 10 4 45 1
c0747 t031 3 2 54 1
c0748 t032 4 2 20 1
c0749 t033 6 3 20 1
c0750 t034 6 2 10 1
c0751 t035 3 2 10 1
c0752 t036 3 2 35 1
c0753 t037 10 4 30 1
c0754 t037 4 2 30 1
c00U1 t038 6 3 25 1
c0757 t039 10 4 20 1
c0758 t040 3 1 20 1
c00U2 t041 7 3 75 1
c0787 t012 6 3 45 1
c0788 t042 5 2 25 1
c0789 t042 5 2 30 1

ROOMS:
r41 30 4
r44 80 4
r40 50 4
r36 30 2
r39 42 3
r38 42 3
r43 80 4
r42 100 4
r37 80 2

CURRICULA:
q000 4 c00U2 c0721 c0722 c0734 
q001 4 c00U1 c00U2 c0722 c0734 
q002 3 c00U2 c0715 c0746 
q003 6 c0730 c0731 c0743 c0745 c0749 c0754 
q004 3 c0714 c0728 c0751 
q005 1 c0727 
q006 6 c0729 c0731 c0740 c0741 c0748 c0754 
q007 2 c0720 c0738 
q008 3 c0716 c0737 c0747 
q009 4 c00U1 c0716 c0737 c0747 
q010 6 c0729 c0731 c0740 c0742 c0748 c0754 
q011 2 c0720 c0746 
q012 4 c0721 c0743 c0744 c0749 
q013 2 c0719 c0747 
q014 3 c0721 c0725 c0734 
q015 3 c00U2 c0725 c0734 
q016 1 c0720 
q017 1 c0735 
q018 2 c0720 c0735 
q019 4 c0730 c0731 c0734 c0750 
q020 3 c0720 c0738 c0747 
q021 8 c00U1 c0716 c0720 c0725 c0726 c0727 c0752 c0789 
q022 6 c0716 c0720 c0726 c0727 c0752 c0789 
q023 5 c0713 c0727 c0735 c0736 c0789 
q024 4 c0718 c0733 c0753 c0787 
q025 3 c0723 c0724 c0788 
q026 2 c0736 c0788 
q027 4 c0717 c0732 c0753 c0787 
q028 1 c0788 
q029 6 c0717 c0732 c0753 c0757 c0758 c0787 
q030 4 c0723 c0724 c0739 c0788 
q031 5 c00U1 c0714 c0724 c0739 c0788 
q032 4 c00U2 c0718 c0733 c0787 
q033 3 c0735 c0752 c0789 
q034 3 c0718 c0733 c0787 
q035 3 c0713 c0736 c0789 
q036 3 c0713 c0727 c0789 

UNAVAILABILITY_CONSTRAINTS:
c0713 0 0 
c0713 0 1 
c0713 0 2 
c0713 0 3 
c0713 0 4 
c0713 0 5 
c0713 0 6 
c0713 0 7 
c0713 0 8 
c0713 0 9 
c0713 5 5 
c0713 5 6 
c0713 5 7 
c0713 5 8 
c0713 5 9 
c0714 5 5 
c0714 5 6 
c0714 5 7 
c0714 5 8 
c0714 5 9 
c0715 5 5 
c0715 5 6 
c0715 5 7 
c0715 5 8 
c0715 5 9 
c0716 5 5 
c0716 5 6 
c0716 5 7 
c0716 5 8 
c0716 5 9 
c0717 5 5 
c0717 5 6 
c0717 5 7 
c0717 5 8 
c0717 5 9 
c0718 5 5 
c0718 5 6 
c0718 5 7 
c0718 5 8 
c0718 5 9 
c0719 5 5 
c0719 5 6 
c0719 5 7 
c0719 5 8 
c0719 5 9 
c0720 5 5 
c0720 5 6 
c0720 5 7 
c0720 5 8 
c0720 5 9 
c0721 5 5 
c0721 5 6 
c0721 5 7 
c0721 5 8 
c0721 5 9 
c0722 5 5 
c0722 5 6 
c0722 5 7 
c0722 5 8 
c0722 5 9 
c0723 5 5 
c0723 5 6 
c0723 5 7 
c0723 5 8 
c0723 5 9 
c0724 5 5 
c0724 5 6 
c0724 5 7 
c0724 5 8 
c0724 5 9 
c0725 5 5 
c0725 5 6 
c0725 5 7 
c0725 5 8 
c0725 5 9 
c0726 5 5 
c0726 5 6 
c0726 5 7 
c0726 5 8 
c0726 5 9 
c0727 5 5 
c0727 5 6 
c0727 5 7 
c0727 5 8 
c0727 5 9 
c0728 5 5 
c0728 5 6 
c0728 5 7 
c0728 5 8 
c0728 5 9 
c0729 5 5 
c0729 5 6 
c0729 5 7 
c0729 5 8 
c0729 5 9 
c0730 5 5 
c0730 5 6 
c0730 5 7 
c0730 5 8 
c0730 5 9 
c0731 0 0 
c0731 0 1 
c0731 0 2 
c0731 0 3 
c0731 0 4 
c0731 1 0 
c0731 1 1 
c0731 1 2 
c0731 1 3 
c0731 1 4 
c0731 2 0 
c0731 2 1 
c0731 2 2 
c0731 2 3 
c0731 2 4 
c0731 3 0 
c0731 3 1 
c0731 3 2 
c0731 3 3 
c0731 3 4 
c0731 4 0 
c0731 4 1 
c0731 4 2 
c0731 4 3 
c0731 4 4 
c0731 5 0 
c0731 5 1 
c0731 5 2 
c0731 5 3 
c0731 5 4 
c0731 5 5 
c0731 5 6 
c0731 5 7 
c0731 5 8 
c0731 5 9 
c0732 5 5 
c0732 5 6 
c0732 5 7 
c0732 5 8 
c0732 5 9 
c0733 5 5 
c0733 5 6 
c0733 5 7 
c0733 5 8 
c0733 5 9 
c0734 5 5 
c0734 5 6 
c0734 5 7 
c0734 5 8 
c0734 5 9 
c0735 5 5 
c0735 5 6 
c0735 5 7 
c0735 5 8 
c0735 5 9 
c0736 5 5 
c0736 5 6 
c0736 5 7 
c0736 5 8 
c0736 5 9 
c0737 5 5 
c0737 5 6 
c0737 5 7 
c0737 5 8 
c0737 5 9 
c0738 5 5 
c0738 5 6 
c0738 5 7 
c0738 5 8 
c0738 5 9 
c0739 5 5 
c0739 5 6 
c0739 5 7 
c0739 5 8 
c0739 5 9 
c0740 5 5 
c0740 5 6 
c0740 5 7 
c0740 5 8 
c0740 5 9 
c0741 0 0 
c0741 0 1 
c0741 0 2 
c0741 0 3 
c0741 0 4 
c0741 1 0 
c0741 1 1 
c0741 1 2 
c0741 1 3 
c0741 1 4 
c0741 2 0 
c0741 2 1 
c0741 2 2 
c0741 2 3 
c0741 2 4 
c0741 3 0 
c0741 3 1 
c0741 3 2 
c0741 3 3 
c0741 3 4 
c0741 4 0 
c0741 4 1 
c0741 4 2 
c0741 4 3 
c0741 4 4 
c0741 5 0 
c0741 5 1 
c0741 5 2 
c0741 5 3 
c0741 5 4 
c0741 5 5 
c0741 5 6 
c0741 5 7 
c0741 5 8 
c0741 5 9 
c0742 0 0 
c0742 0 1 
c0742 0 2 
c0742 0 3 
c0742 0 4 
c0742 1 0 
c0742 1 1 
c0742 1 2 
c0742 1 3 
c0742 1 4 
c0742 2 0 
c0742 2 1 
c0742 2 2 
c0742 2 3 
c0742 2 4 
c0742 3 0 
c0742 3 1 
c0742 3 2 
c0742 3 3 
c0742 3 4 
c0742 4 0 
c0742 4 1 
c0742 4 2 
c0742 4 3 
c0742 4 4 
c0742 5 0 
c0742 5 1 
c0742 5 2 
c0742 5 3 
c0742 5 4 
c0742 5 5 
c0742 5 6 
c0742 5 7 
c0742 5 8 
c0742 5 9 
c0743 5 5 
c0743 5 6 
c0743 5 7 
c0743 5 8 
c0743 5 9 
c0744 0 0 
c0744 0 1 
c0744 0 2 
c0744 0 3 
c0744 0 4 
c0744 1 0 
c0744 1 1 
c0744 1 2 
c0744 1 3 
c0744 1 4 
c0744 2 0 
c0744 2 1 
c0744 2 2 
c0744 2 3 
c0744 2 4 
c0744 3 0 
c0744 3 1 
c0744 3 2 
c0744 3 3 
c0744 3 4 
c0744 4 0 
c0744 4 1 
c0744 4 2 
c0744 4 3 
c0744 4 4 
c0744 5 0 
c0744 5 1 
c0744 5 2 
c0744 5 3 
c0744 5 4 
c0744 5 5 
c0744 5 6 
c0744 5 7 
c0744 5 8 
c0744 5 9 
c0745 0 0 
c0745 0 1 
c0745 0 2 
c0745 0 3 
c0745 0 4 
c0745 1 0 
c0745 1 1 
c0745 1 2 
c0745 1 3 
c0745 1 4 
c0745 2 0 
c0745 2 1 
c0745 2 2 
c0745 2 3 
c0745 2 4 
c0745 3 0 
c0745 3 1 
c0745 3 2 
c0745 3 3 
c0745 3 4 
c0745 4 0 
c0745 4 1 
c0745 4 2 
c0745 4 3 
c0745 4 4 
c0745 5 0 
c0745 5 1 
c0745 5 2 
c0745 5 3 
c0745 5 4 
c0745 5 5 
c0745 5 6 
c0745 5 7 
c0745 5 8 
c0745 5 9 
c0746 5 5 
c0746 5 6 
c0746 5 7 
c0746 5 8 
c0746 5 9 
c0747 5 5 
c0747 5 6 
c0747 5 7 
c0747 5 8 
c0747 5 9 
c0748 5 5 
c0748 5 6 
c0748 5 7 
c0748 5 8 
c0748 5 9 
c0749 5 5 
c0749 5 6 
c0749 5 7 
c0749 5 8 
c0749 5 9 
c0750 5 5 
c0750 5 6 
c0750 5 7 
c0750 5 8 
c0750 5 9 
c0751 5 5 
c0751 5 6 
c0751 5 7 
c0751 5 8 
c0751 5 9 
c0752 5 5 
c0752 5 6 
c0752 5 7 
c0752 5 8 
c0752 5 9 
c0753 5 5 
c0753 5 6 
c0753 5 7 
c0753 5 8 
c0753 5 9 
c0754 5 5 
c0754 5 6 
c0754 5 7 
c0754 5 8 
c0754 5 9 
c00U1 5 5 
c00U1 5 6 
c00U1 5 7 
c00U1 5 8 
c00U1 5 9 
c0757 5 5 
c0757 5 6 
c0757 5 7 
c0757 5 8 
c0757 5 9 
c0758 5 5 
c0758 5 6 
c0758 5 7 
c0758 5 8 
c0758 5 9 
c00U2 5 5 
c00U2 5 6 
c00U2 5 7 
c00U2 5 8 
c00U2 5 9 
c0787 5 5 
c0787 5 6 
c0787 5 7 
c0787 5 8 
c0787 5 9 
c0788 5 5 
c0788 5 6 
c0788 5 7 
c0788 5 8 
c0788 5 9 
c0789 5 5 
c0789 5 6 
c0789 5 7 
c0789 5 8 
c0789 5 9 

ROOM_CONSTRAINTS:
c0713 r36
c0713 r42
c0714 r36
c0714 r42
c0715 r36
c0715 r42
c0716 r36
c0716 r42
c0717 r36
c0717 r42
c0718 r36
c0718 r42
c0719 r36
c0719 r42
c0720 r36
c0720 r42
c0721 r36
c0721 r42
c0722 r36
c0722 r42
c0723 r36
c0723 r42
c0724 r36
c0724 r42
c0725 r36
c0725 r42
c0726 r36
c0726 r42
c0727 r36
c0727 r42
c0728 r36
c0728 r42
c0729 r36
c0729 r42
c0730 r36
c0730 r42
c0731 r41
c0731 r44
c0731 r40
c0731 r36
c0731 r39
c0731 r38
c0731 r43
c0732 r44
c0732 r40
c0732 r36
c0732 r39
c0732 r38
c0732 r43
c0732 r42
c0733 r36
c0733 r42
c0734 r36
c0734 r42
c0735 r36
c0735 r42
c0736 r36
c0736 r42
c0737 r36
c0737 r42
c0738 r36
c0738 r42
c0739 r36
c0739 r42
c0740 r36
c0740 r42
c0741 r41
c0741 r44
c0741 r40
c0741 r39
c0741 r38
c0741 r43
c0741 r42
c0742 r41
c0742 r44
c0742 r40
c0742 r39
c0742 r38
c0742 r43
c0742 r42
c0743 r36
c0743 r42
c0744 r41
c0744 r44
c0744 r40
c0744 r36
c0744 r39
c0744 r38
c0744 r43
c0745 r41
c0745 r44
c0745 r40
c0745 r36
c0745 r39
c0745 r38
c0745 r43
c0746 r36
c0746 r42
c0747 r36
c0747 r42
c0748 r36
c0748 r42
c0749 r36
c0749 r42
c0750 r36
c0750 r42
c0751 r36
c0751 r42
c0752 r36
c0752 r42
c0753 r36
c0753 r42
c0754 r36
c0754 r42
c00U1 r36
c00U1 r42
c0757 r36
c0757 r42
c0758 r36
c0758 r42
c00U2 r36
c00U2 r42
c0787 r36
c0787 r42
c0788 r36
c0788 r42
c0789 r36
c0789 r42

END.